10J3M/DAT/10J3MNLL-11.dat
10 3
21.3899 21.3899
25.1722 25.1722
22.8292 22.8292
24.6461 24.6461
21.7983 21.7983
19.1417 19.1417
27.2342 27.2342
24.817 24.817
26.0841 26.0841
24.2324 24.2324
79.115