10J3M/SOL/10J3MNLL-11.sol
solution status: optimal solution found
objective value:                     86.1241666666667
x#1#1                                               1 	(obj:0)
x#2#1                                               1 	(obj:0)
x#3#2                                               1 	(obj:0)
x#4#2                                               1 	(obj:0)
x#5#2                              0.0708825174485057 	(obj:0)
x#5#3                               0.929117482551495 	(obj:0)
x#6#3                                               1 	(obj:0)
x#7#1                               0.106824528711602 	(obj:0)
x#7#3                               0.893175471288398 	(obj:0)
x#8#2                                               1 	(obj:0)
x#9#1                                               1 	(obj:0)
x#10#1                                              1 	(obj:0)
z                                    86.1241666666667 	(obj:1)
